Executando Fernandes MODIFICADO
Rodando pra 1h
Optimize a model with 55 rows, 60 columns and 441 nonzeros
Coefficient statistics:
  Matrix range    [1e+00, 1e+07]
  Objective range [3e-01, 3e-01]
  Bounds range    [1e+00, 1e+07]
  RHS range       [1e+00, 4e+00]
Found heuristic solution: objective 249
Presolve removed 13 rows and 17 columns
Presolve time: 0.00s
Presolved: 42 rows, 43 columns, 283 nonzeros
Variable types: 20 continuous, 23 integer (20 binary)

Root relaxation: objective 2.342993e+01, 35 iterations, 0.00 seconds

    Nodes    |    Current Node    |     Objective Bounds      |     Work
 Expl Unexpl |  Obj  Depth IntInf | Incumbent    BestBd   Gap | It/Node Time

     0     0   23.42993    0   11  248.99975   23.42993  90.6%     -    0s
H    0     0                     212.6664540   23.42993  89.0%     -    0s
H    0     0                     208.3331250   23.42993  88.8%     -    0s
     0     0   41.31023    0   19  208.33312   41.31023  80.2%     -    0s
H    0     0                     178.3331550   41.31023  76.8%     -    0s
     0     0   41.32641    0   19  178.33315   41.32641  76.8%     -    0s
     0     0   48.07388    0   18  178.33315   48.07388  73.0%     -    0s
     0     0   55.43926    0   19  178.33315   55.43926  68.9%     -    0s
     0     0   55.94346    0   21  178.33315   55.94346  68.6%     -    0s
     0     0   56.11247    0   21  178.33315   56.11247  68.5%     -    0s
     0     0   60.05189    0   20  178.33315   60.05189  66.3%     -    0s
     0     0   60.35547    0   21  178.33315   60.35547  66.2%     -    0s
     0     0   64.79129    0   21  178.33315   64.79129  63.7%     -    0s
     0     0   65.26755    0   21  178.33315   65.26755  63.4%     -    0s
     0     0   65.34404    0   21  178.33315   65.34404  63.4%     -    0s
     0     2   65.48801    0   21  178.33315   65.48801  63.3%     -    0s
*   19    12               5     166.3331670   90.58106  45.5%   9.2    0s
*   23     9               5     164.9998350   90.58106  45.1%   8.3    0s

Cutting planes:
  Gomory: 2
  MIR: 38
  Flow cover: 25
  Flow path: 1
  Zero half: 1
  Network: 5

Explored 536 nodes (2382 simplex iterations) in 0.08 seconds
Thread count was 1 (of 4 available processors)

Optimal solution found (tolerance 1.00e-04)
Best objective 1.649998350000e+02, best bound 1.649998350000e+02, gap 0.0%
Tempo: 0.08 segundos

0 4 80 75 36 16 35 
1 3 10 36 39 58 16 
2 3 35 36 45 37 37 
2 4 0 3 71 24 66 
(125 150 191 135 154 )

